Route #1: 5 46 49 31
Route #2: 13 40 10 33 4
Route #3: 20 55 14 58 16 6 30
Route #4: 36 54 15 12
Route #5: 37 70 72 61 71 21 38 28
Route #6: 44 42 65 43 23 62
Route #7: 45 51 19 56 26 32 73
Route #8: 47 35 53 9 8
Route #9: 48 22 29 75
Route #10: 59 11 41 18
Route #11: 60 67 66 39
Route #12: 64 50 25 57 24 2 74
Route #13: 68 27 52 7 76
Route #14: 69 3 63 34 17
cost 1068